benchmarks/R196_k30.lp
% benchmark R196_k30
% num of cables
#const k=30.
% num of 2-sided cables
#const b=15.

% atomic constraints
atomiccon(1,7).
atomiccon(1,29).
atomiccon(1,30).
atomiccon(2,7).
atomiccon(2,8).
atomiccon(2,9).
atomiccon(2,10).
atomiccon(2,29).
atomiccon(2,30).
atomiccon(3,7).
atomiccon(3,8).
atomiccon(3,9).
atomiccon(3,10).
atomiccon(3,11).
atomiccon(3,29).
atomiccon(3,30).
atomiccon(4,5).
atomiccon(4,6).
atomiccon(4,7).
atomiccon(4,8).
atomiccon(4,9).
atomiccon(4,10).
atomiccon(4,11).
atomiccon(4,29).
atomiccon(4,30).
atomiccon(5,10).
atomiccon(5,11).
atomiccon(12,23).
atomiccon(13,6).
atomiccon(13,11).
atomiccon(14,5).
atomiccon(14,6).
atomiccon(14,9).
atomiccon(14,10).
atomiccon(14,11).
atomiccon(15,5).
atomiccon(15,6).
atomiccon(15,8).
atomiccon(15,9).
atomiccon(15,10).
atomiccon(15,11).
atomiccon(16,5).
atomiccon(16,6).
atomiccon(16,7).
atomiccon(16,8).
atomiccon(16,9).
atomiccon(16,10).
atomiccon(16,11).
atomiccon(17,5).
atomiccon(17,6).
atomiccon(17,7).
atomiccon(17,8).
atomiccon(17,9).
atomiccon(17,10).
atomiccon(17,11).
atomiccon(18,6).
atomiccon(18,23).
atomiccon(19,6).
atomiccon(19,11).
atomiccon(19,13).
atomiccon(19,23).
atomiccon(20,5).
atomiccon(20,6).
atomiccon(20,10).
atomiccon(20,11).
atomiccon(20,13).
atomiccon(21,5).
atomiccon(21,6).
atomiccon(21,9).
atomiccon(21,10).
atomiccon(21,11).
atomiccon(21,13).
atomiccon(21,14).
atomiccon(22,5).
atomiccon(22,6).
atomiccon(22,8).
atomiccon(22,9).
atomiccon(22,10).
atomiccon(22,11).
atomiccon(22,13).
atomiccon(22,14).
atomiccon(22,15).
atomiccon(25,5).
atomiccon(25,6).
atomiccon(25,7).
atomiccon(25,8).
atomiccon(25,9).
atomiccon(25,10).
atomiccon(25,11).
atomiccon(25,26).
atomiccon(25,27).
atomiccon(25,29).
atomiccon(25,30).
atomiccon(24,5).
atomiccon(24,6).
atomiccon(24,7).
atomiccon(24,8).
atomiccon(24,9).
atomiccon(24,10).
atomiccon(24,11).
atomiccon(24,25).
atomiccon(24,26).
atomiccon(24,27).
atomiccon(24,28).
atomiccon(24,29).
atomiccon(24,30).
atomiccon(26,5).
atomiccon(26,6).
atomiccon(26,7).
atomiccon(26,8).
atomiccon(26,9).
atomiccon(26,10).
atomiccon(26,11).
atomiccon(26,27).
atomiccon(26,29).
atomiccon(26,30).
atomiccon(27,5).
atomiccon(27,6).
atomiccon(27,7).
atomiccon(27,8).
atomiccon(27,9).
atomiccon(27,10).
atomiccon(27,11).
atomiccon(27,29).
atomiccon(27,30).
atomiccon(28,5).
atomiccon(28,6).
atomiccon(28,7).
atomiccon(28,8).
atomiccon(28,9).
atomiccon(28,10).
atomiccon(28,11).
atomiccon(28,25).
atomiccon(28,26).
atomiccon(28,27).
atomiccon(28,29).
atomiccon(28,30).
atomiccon(30,7).
atomiccon(30,8).
atomiccon(30,29).

% disjunctive constraints
discon(2,3,2,1).
discon(3,4,3,2).
discon(8,9,8,7).
discon(9,10,9,8).
discon(10,11,10,9).
discon(14,13,14,15).
discon(15,14,15,16).
discon(16,15,16,17).
discon(18,12,18,19).
discon(19,18,19,20).
discon(20,19,20,21).
discon(21,20,21,22).

% soft atomic constraints
softcon(2,1).
softcon(3,2).
softcon(4,3).
softcon(6,5).
softcon(8,7).
softcon(9,8).
softcon(10,9).
softcon(11,10).
softcon(23,13).
softcon(13,14).
softcon(14,15).
softcon(15,16).
softcon(16,17).
softcon(12,18).
softcon(18,19).
softcon(19,20).
softcon(20,21).
softcon(21,22).

% direct successor constraints

