benchmarks/minizinc/R196_k30.dzn
k = 30;
b = 15;
AtomicConstraints =  [|
1, 7|
	1, 29|
	1, 30|
	2, 7|
	2, 8|
	2, 9|
	2, 10|
	2, 29|
	2, 30|
	3, 7|
	3, 8|
	3, 9|
	3, 10|
	3, 11|
	3, 29|
	3, 30|
	4, 5|
	4, 6|
	4, 7|
	4, 8|
	4, 9|
	4, 10|
	4, 11|
	4, 29|
	4, 30|
	5, 10|
	5, 11|
	12, 23|
	13, 6|
	13, 11|
	14, 5|
	14, 6|
	14, 9|
	14, 10|
	14, 11|
	15, 5|
	15, 6|
	15, 8|
	15, 9|
	15, 10|
	15, 11|
	16, 5|
	16, 6|
	16, 7|
	16, 8|
	16, 9|
	16, 10|
	16, 11|
	17, 5|
	17, 6|
	17, 7|
	17, 8|
	17, 9|
	17, 10|
	17, 11|
	18, 6|
	18, 23|
	19, 6|
	19, 11|
	19, 13|
	19, 23|
	20, 5|
	20, 6|
	20, 10|
	20, 11|
	20, 13|
	21, 5|
	21, 6|
	21, 9|
	21, 10|
	21, 11|
	21, 13|
	21, 14|
	22, 5|
	22, 6|
	22, 8|
	22, 9|
	22, 10|
	22, 11|
	22, 13|
	22, 14|
	22, 15|
	25, 5|
	25, 6|
	25, 7|
	25, 8|
	25, 9|
	25, 10|
	25, 11|
	25, 26|
	25, 27|
	25, 29|
	25, 30|
	24, 5|
	24, 6|
	24, 7|
	24, 8|
	24, 9|
	24, 10|
	24, 11|
	24, 25|
	24, 26|
	24, 27|
	24, 28|
	24, 29|
	24, 30|
	26, 5|
	26, 6|
	26, 7|
	26, 8|
	26, 9|
	26, 10|
	26, 11|
	26, 27|
	26, 29|
	26, 30|
	27, 5|
	27, 6|
	27, 7|
	27, 8|
	27, 9|
	27, 10|
	27, 11|
	27, 29|
	27, 30|
	28, 5|
	28, 6|
	28, 7|
	28, 8|
	28, 9|
	28, 10|
	28, 11|
	28, 25|
	28, 26|
	28, 27|
	28, 29|
	28, 30|
	30, 7|
	30, 8|
	30, 29|];
DisjunctiveConstraints =  [|
	2, 3, 2, 1|
	3, 4, 3, 2|
	8, 9, 8, 7|
	9, 10, 9, 8|
	10, 11, 10, 9|
	14, 13, 14, 15|
	15, 14, 15, 16|
	16, 15, 16, 17|
	18, 12, 18, 19|
	19, 18, 19, 20|
	20, 19, 20, 21|
	21, 20, 21, 22|];
SoftAtomicConstraints =  [|
2, 1|
3, 2|
4, 3|
6, 5|
8, 7|
9, 8|
10, 9|
11, 10|
23, 13|
13, 14|
14, 15|
15, 16|
16, 17|
12, 18|
18, 19|
19, 20|
20, 21|
21, 22|];
DirectSuccessors =  [];